peakDumbCharging = 25900; 
Machine = anon_enum(16); 
machineSpeed = [3700,3700,3700,3700,3700,3700,3700,3700,3700,3700,3700,3700,3700,3700,3700,3700]; 
machineLoad = [3700,3700,3700,3700,3700,3700,3700,3700,3700,3700,3700,3700,3700,3700,3700,3700]; 
Car = anon_enum(41); 
demandCar = [4040,7240,5080,33160,18200,8480,14200,8400,7960,18280,2720,6600,4920,5000,8680,12960,2760,8080,14120,6440,12080,2840,15440,3520,6160,7320,10800,8800,5800,5720,2480,1000,10720,9160,2640,5040,18960,7360,15160,12240,33240]; 
arrivalCar = [74,74,74,71,66,66,64,63,63,63,61,61,59,58,58,57,56,55,54,53,53,51,51,51,51,49,49,48,48,47,46,45,45,44,43,43,43,42,40,37,35]; 
departureCar = [78,77,76,82,73,72,72,68,67,71,64,66,63,62,64,65,64,59,61,56,60,54,60,54,55,54,54,55,52,57,48,47,52,47,45,45,51,50,45,43,53]; 
